c description: Random 2-CNF over 15 variables and 15 clauses
c generator: CNFgen (0.9.0)
c copyright: (C) 2012-2020 Massimo Lauria <massimo.lauria@uniroma1.it>
c url: https://massimolauria.net/cnfgen
c
p cnf 15 15
4 13 0
-3 -15 0
-4 -5 0
-2 -12 0
-13 -15 0
5 -10 0
-12 -13 0
7 13 0
11 12 0
-5 11 0
-11 -12 0
1 11 0
3 6 0
-2 -3 0
5 12 0